NAME          ClpDefau
ROWS
 N  OBJROW
 L  R_228_0
 L  R_228_1
 L  R_228_2
 L  R_228_3
 L  R_228_4
 L  R_228_5
 L  R_228_6
 L  R_228_7
 L  R_228_8
 L  R_228_9
 L  R_228_10
 L  R_228_11
 L  R_228_12
 L  R_228_13
 L  R_228_14
 L  R_228_15
COLUMNS
    x_0       OBJROW     -1.           R_228_0   4.          
    x_0       R_228_1   23.            R_228_2   66.         
    x_0       R_228_3   66.            R_228_4   24.         
    x_0       R_228_6   54.            R_228_7   98.         
    x_0       R_228_8   76.            R_228_9   58.         
    x_0       R_228_10  97.            R_228_11  95.         
    x_0       R_228_12  68.            R_228_13  36.         
    x_0       R_228_15  46.         
    x_1       OBJROW     -2.           R_228_0   59.         
    x_1       R_228_2   73.            R_228_3   72.         
    x_1       R_228_4   63.            R_228_5   42.         
    x_1       R_228_9   99.            R_228_11  91.         
    x_1       R_228_13  65.            R_228_14  76.         
    x_1       R_228_15  94.         
    x_2       OBJROW     -2.           R_228_0   66.         
    x_2       R_228_1   88.            R_228_2   10.         
    x_2       R_228_3   44.            R_228_4   25.         
    x_2       R_228_6   74.            R_228_7   35.         
    x_2       R_228_8   88.            R_228_10  67.         
    x_2       R_228_11  35.            R_228_12  27.         
    x_2       R_228_14  92.            R_228_15  8.          
    x_3       OBJROW     -6.           R_228_0   23.         
    x_3       R_228_1   4.             R_228_2   9.          
    x_3       R_228_3   94.            R_228_5   17.         
    x_3       R_228_7   24.            R_228_8   1.          
    x_3       R_228_9   6.             R_228_10  32.         
    x_3       R_228_11  5.             R_228_12  79.         
    x_3       R_228_13  96.            R_228_14  44.         
    x_3       R_228_15  40.         
    x_4       OBJROW     -3.           R_228_0   99.         
    x_4       R_228_1   6.             R_228_3   80.         
    x_4       R_228_4   61.            R_228_6   88.         
    x_4       R_228_7   14.            R_228_8   17.         
    x_4       R_228_9   100.           R_228_10  66.         
    x_4       R_228_11  44.            R_228_12  78.         
    x_4       R_228_14  90.            R_228_15  18.         
    x_5       OBJROW     -5.           R_228_0   33.         
    x_5       R_228_1   21.            R_228_2   59.         
    x_5       R_228_3   66.            R_228_5   5.          
    x_5       R_228_7   57.            R_228_8   11.         
    x_5       R_228_9   80.            R_228_10  80.         
    x_5       R_228_11  33.            R_228_12  36.         
    x_5       R_228_13  1.             R_228_14  50.         
    x_5       R_228_15  15.         
    x_6       OBJROW     -5.           R_228_0   12.         
    x_6       R_228_1   13.            R_228_2   97.         
    x_6       R_228_3   28.            R_228_4   86.         
    x_6       R_228_5   40.            R_228_6   49.         
    x_6       R_228_7   98.            R_228_9   56.         
    x_6       R_228_10  3.             R_228_11  7.          
    x_6       R_228_14  13.            R_228_15  62.         
    x_7       OBJROW     -10.          R_228_0   67.         
    x_7       R_228_2   47.            R_228_3   48.         
    x_7       R_228_4   88.            R_228_5   14.         
    x_7       R_228_6   100.           R_228_7   3.          
    x_7       R_228_9   82.            R_228_10  27.         
    x_7       R_228_12  1.             R_228_13  48.         
    x_7       R_228_14  93.            R_228_15  97.         
    x_8       OBJROW     -4.           R_228_0   15.         
    x_8       R_228_1   51.            R_228_2   18.         
    x_8       R_228_3   51.            R_228_5   16.         
    x_8       R_228_6   43.            R_228_7   28.         
    x_8       R_228_8   4.             R_228_9   61.         
    x_8       R_228_10  93.            R_228_11  38.         
    x_8       R_228_12  59.            R_228_13  48.         
    x_8       R_228_14  68.         
    x_9       OBJROW     -10.          R_228_0   94.         
    x_9       R_228_4   30.            R_228_5   77.         
    x_9       R_228_6   55.            R_228_7   90.         
    x_9       R_228_9   74.            R_228_10  46.         
    x_9       R_228_11  70.            R_228_12  54.         
    x_9       R_228_14  88.         
    x_10      OBJROW     -1.           R_228_0   17.         
    x_10      R_228_2   91.            R_228_3   88.         
    x_10      R_228_4   23.            R_228_5   15.         
    x_10      R_228_6   97.            R_228_7   43.         
    x_10      R_228_8   92.            R_228_9   22.         
    x_10      R_228_11  91.            R_228_12  46.         
    x_10      R_228_13  74.            R_228_14  60.         
    x_10      R_228_15  4.          
    x_11      OBJROW     -10.          R_228_1   95.         
    x_11      R_228_2   66.            R_228_3   36.         
    x_11      R_228_4   91.            R_228_5   53.         
    x_11      R_228_6   61.            R_228_7   71.         
    x_11      R_228_8   96.            R_228_10  93.         
    x_11      R_228_11  80.            R_228_12  86.         
    x_11      R_228_13  82.            R_228_15  68.         
    x_12      OBJROW     -3.           R_228_0   60.         
    x_12      R_228_1   13.            R_228_2   28.         
    x_12      R_228_3   78.            R_228_4   28.         
    x_12      R_228_6   72.            R_228_7   26.         
    x_12      R_228_8   76.            R_228_9   63.         
    x_12      R_228_11  79.            R_228_12  62.         
    x_12      R_228_13  73.            R_228_14  92.         
    x_12      R_228_15  98.         
    x_13      OBJROW     -7.           R_228_0   1.          
    x_13      R_228_2   86.            R_228_3   97.         
    x_13      R_228_4   87.            R_228_6   65.         
    x_13      R_228_7   11.            R_228_8   45.         
    x_13      R_228_9   97.            R_228_12  81.         
    x_13      R_228_13  93.            R_228_14  21.         
    x_13      R_228_15  60.         
    x_14      OBJROW     -7.           R_228_0   20.         
    x_14      R_228_1   72.            R_228_2   1.          
    x_14      R_228_3   69.            R_228_5   27.         
    x_14      R_228_7   84.            R_228_8   89.         
    x_14      R_228_9   39.            R_228_10  41.         
    x_14      R_228_11  83.            R_228_13  83.         
    x_14      R_228_14  12.            R_228_15  27.         
    x_15      OBJROW     -9.           R_228_0   68.         
    x_15      R_228_2   65.            R_228_3   40.         
    x_15      R_228_4   59.            R_228_5   67.         
    x_15      R_228_6   15.            R_228_7   49.         
    x_15      R_228_9   46.            R_228_10  59.         
    x_15      R_228_11  64.            R_228_12  38.         
    x_15      R_228_13  18.            R_228_15  82.         
    x_16      OBJROW     -6.           R_228_0   35.         
    x_16      R_228_1   13.            R_228_3   97.         
    x_16      R_228_4   48.            R_228_5   18.         
    x_16      R_228_6   30.            R_228_7   71.         
    x_16      R_228_8   52.            R_228_10  36.         
    x_16      R_228_13  89.            R_228_14  42.         
    x_16      R_228_15  97.         
    x_17      OBJROW     -9.           R_228_0   91.         
    x_17      R_228_2   92.            R_228_3   80.         
    x_17      R_228_4   10.            R_228_5   51.         
    x_17      R_228_6   34.            R_228_8   62.         
    x_17      R_228_9   24.            R_228_10  49.         
    x_17      R_228_11  4.             R_228_12  22.         
    x_17      R_228_13  94.            R_228_14  56.         
    x_17      R_228_15  42.         
    x_18      OBJROW     -8.           R_228_0   77.         
    x_18      R_228_1   37.            R_228_2   20.         
    x_18      R_228_3   26.            R_228_5   19.         
    x_18      R_228_6   43.            R_228_7   54.         
    x_18      R_228_8   12.            R_228_9   32.         
    x_18      R_228_10  94.            R_228_11  44.         
    x_18      R_228_13  79.            R_228_14  19.         
    x_18      R_228_15  9.          
    x_19      OBJROW     -9.           R_228_0   100.        
    x_19      R_228_1   42.            R_228_2   15.         
    x_19      R_228_3   99.            R_228_4   51.         
    x_19      R_228_5   7.             R_228_6   61.         
    x_19      R_228_7   41.            R_228_8   80.         
    x_19      R_228_9   76.            R_228_10  86.         
    x_19      R_228_14  53.            R_228_15  58.         
    x_20      OBJROW     -5.           R_228_0   14.         
    x_20      R_228_1   76.            R_228_2   88.         
    x_20      R_228_3   23.            R_228_4   40.         
    x_20      R_228_5   91.            R_228_6   14.         
    x_20      R_228_7   29.            R_228_8   19.         
    x_20      R_228_9   12.            R_228_10  84.         
    x_20      R_228_11  61.            R_228_12  62.         
    x_20      R_228_13  4.             R_228_14  65.         
    x_20      R_228_15  7.          
    x_21      OBJROW     -1.           R_228_0   1.          
    x_21      R_228_2   88.            R_228_3   31.         
    x_21      R_228_4   63.            R_228_5   70.         
    x_21      R_228_6   14.            R_228_7   7.          
    x_21      R_228_8   81.            R_228_9   80.         
    x_21      R_228_10  51.            R_228_12  65.         
    x_21      R_228_13  87.            R_228_14  14.         
    x_22      OBJROW     -1.           R_228_0   27.         
    x_22      R_228_1   26.            R_228_2   56.         
    x_22      R_228_3   17.            R_228_4   39.         
    x_22      R_228_6   61.            R_228_7   68.         
    x_22      R_228_8   36.            R_228_9   90.         
    x_22      R_228_10  71.            R_228_11  4.          
    x_22      R_228_12  97.            R_228_13  25.         
    x_22      R_228_14  6.             R_228_15  81.         
    x_23      OBJROW     -6.           R_228_0   34.         
    x_23      R_228_1   61.            R_228_2   95.         
    x_23      R_228_3   29.            R_228_5   5.          
    x_23      R_228_6   14.            R_228_7   89.         
    x_23      R_228_8   24.            R_228_9   12.         
    x_23      R_228_12  38.            R_228_14  42.         
    x_23      R_228_15  36.         
    x_24      OBJROW     -8.           R_228_1   9.          
    x_24      R_228_2   54.            R_228_3   5.          
    x_24      R_228_4   85.            R_228_6   94.         
    x_24      R_228_7   3.             R_228_8   43.         
    x_24      R_228_9   94.            R_228_10  68.         
    x_24      R_228_11  26.            R_228_12  17.         
    x_24      R_228_13  58.         
    x_25      OBJROW     -6.           R_228_0   79.         
    x_25      R_228_1   25.            R_228_2   57.         
    x_25      R_228_3   61.            R_228_5   10.         
    x_25      R_228_6   78.            R_228_7   61.         
    x_25      R_228_8   79.            R_228_9   74.         
    x_25      R_228_11  40.            R_228_13  39.         
    x_25      R_228_14  4.             R_228_15  41.         
    x_26      OBJROW     -7.           R_228_0   69.         
    x_26      R_228_1   93.            R_228_2   57.         
    x_26      R_228_3   61.            R_228_5   75.         
    x_26      R_228_6   28.            R_228_7   78.         
    x_26      R_228_8   93.            R_228_9   76.         
    x_26      R_228_10  36.            R_228_11  64.         
    x_26      R_228_12  31.            R_228_13  39.         
    x_27      OBJROW     -7.           R_228_0   80.         
    x_27      R_228_1   43.            R_228_2   90.         
    x_27      R_228_3   53.            R_228_4   28.         
    x_27      R_228_5   34.            R_228_6   18.         
    x_27      R_228_8   56.            R_228_9   59.         
    x_27      R_228_10  61.            R_228_12  31.         
    x_27      R_228_13  69.            R_228_14  12.         
    x_27      R_228_15  70.         
    x_28      OBJROW     -9.           R_228_0   7.          
    x_28      R_228_1   56.            R_228_2   66.         
    x_28      R_228_3   47.            R_228_4   67.         
    x_28      R_228_6   9.             R_228_7   95.         
    x_28      R_228_8   36.            R_228_9   62.         
    x_28      R_228_10  84.            R_228_11  42.         
    x_28      R_228_12  7.             R_228_13  83.         
    x_28      R_228_14  98.            R_228_15  72.         
    x_29      OBJROW     -3.           R_228_0   87.         
    x_29      R_228_1   56.            R_228_2   5.          
    x_29      R_228_3   85.            R_228_4   7.          
    x_29      R_228_6   44.            R_228_7   13.         
    x_29      R_228_8   14.            R_228_9   45.         
    x_29      R_228_10  82.            R_228_11  62.         
    x_29      R_228_13  20.            R_228_14  44.         
    x_29      R_228_15  82.         
    x_30      OBJROW     -9.           R_228_0   87.         
    x_30      R_228_2   7.             R_228_4   70.         
    x_30      R_228_5   99.            R_228_6   54.         
    x_30      R_228_7   24.            R_228_8   6.          
    x_30      R_228_9   98.            R_228_12  38.         
    x_30      R_228_13  6.             R_228_15  29.         
    x_31      OBJROW     -3.           R_228_0   47.         
    x_31      R_228_1   77.            R_228_3   71.         
    x_31      R_228_4   1.             R_228_5   11.         
    x_31      R_228_6   36.            R_228_7   29.         
    x_31      R_228_8   67.            R_228_11  17.         
    x_31      R_228_12  17.            R_228_13  48.         
    x_31      R_228_14  74.            R_228_15  57.         
RHS
    RHS       R_228_0   1503.          R_228_1   1586.       
    RHS       R_228_2   1700.          R_228_3   1689.       
    RHS       R_228_4   1611.          R_228_5   1508.       
    RHS       R_228_6   1363.          R_228_7   1533.       
    RHS       R_228_8   1584.          R_228_9   1345.       
    RHS       R_228_10  1459.          R_228_11  1354.       
    RHS       R_228_12  1291.          R_228_13  1408.       
    RHS       R_228_14  1641.          R_228_15  1375.       
BOUNDS
 UI BOUND     x_0       10.         
 UI BOUND     x_1       10.         
 UI BOUND     x_2       10.         
 UI BOUND     x_3       10.         
 UI BOUND     x_4       10.         
 UI BOUND     x_5       10.         
 UI BOUND     x_6       10.         
 UI BOUND     x_7       10.         
 UI BOUND     x_8       10.         
 UI BOUND     x_9       10.         
 UI BOUND     x_10      10.         
 UI BOUND     x_11      10.         
 UI BOUND     x_12      10.         
 UI BOUND     x_13      10.         
 UI BOUND     x_14      10.         
 UI BOUND     x_15      10.         
 UI BOUND     x_16      10.         
 UI BOUND     x_17      10.         
 UI BOUND     x_18      10.         
 UI BOUND     x_19      10.         
 UI BOUND     x_20      10.         
 UI BOUND     x_21      10.         
 UI BOUND     x_22      10.         
 UI BOUND     x_23      10.         
 UI BOUND     x_24      10.         
 UI BOUND     x_25      10.         
 UI BOUND     x_26      10.         
 UI BOUND     x_27      10.         
 UI BOUND     x_28      10.         
 UI BOUND     x_29      10.         
 UI BOUND     x_30      10.         
 UI BOUND     x_31      10.         
ENDATA
